(declare-const X String)
; /\bobj\x0a\x20*?\/Pattern\x20*?\x0aendobj\b/i
(assert (not (str.in.re X (re.++ (str.to.re "/obj\x0a") (re.* (str.to.re " ")) (str.to.re "/Pattern") (re.* (str.to.re " ")) (str.to.re "\x0aendobj/i\x0a")))))
(check-sat)
